PREC=A
ENCUT=720
ALGO=normal
EDIFF=1E-8
LREAL=F
NPAR=8
KPAR=16
NELM=200
NELMIN=4

ISTART=0
ICHARG=0
ISMEAR=1
SIGMA=0.15

#opt
ISIF=2
POTIM=0.1 
NSW=200 
IBRION=2  

LWAVE=F
LCHARG=F
PSTRESS=0

KSPACING=0.12
KGAMMA=F

ispin=2
MAGMOM= #Add Magmom for each element; see material project database for values
